NAME : graph14
COMMENT : H Algorithm Solution by Oscar Riveros [http://twitter.com/maxtuno]
TYPE : TOUR
DIMENSION : 142
TOUR_SECTION
79
64
71
127
28
101
95
91
29
136
104
99
131
84
65
30
121
124
52
140
123
38
139
80
133
82
68
135
142
54
98
57
126
12
141
128
49
94
5
21
3
51
56
129
39
137
23
62
109
58
20
6
69
76
32
53
48
35
113
90
134
59
138
119
132
120
14
42
110
61
46
89
13
55
25
102
1
4
19
7
36
92
70
17
31
2
125
106
8
45
107
115
72
43
16
11
130
37
26
9
112
86
97
122
10
66
41
117
103
73
114
96
34
75
108
111
40
27
100
44
74
18
47
33
116
83
81
24
22
67
88
93
50
118
77
87
85
63
60
105
15
78
-1
EOF
